0 67 78
1 76 86
2 71 89
3 88 94
4 87 93
5 91 93
6 90 92
7 90 92
8 87 96
9 97 100
10 70 101
11 77 98
12 99 99
13 92 96
14 66 95
15 90 96
16 84 95
17 97 99
18 85 96
19 84 95
20 80 94
21 77 93
22 87 90
23 87 91
24 86 88
25 75 85
26 78 84
27 73 82
28 78 79
29 39 78
30 64 75
31 70 74
32 69 72
33 61 68
34 68 67
35 56 63
36 49 62
37 50 63
38 55 60
39 45 56
40 50 55
41 24 53
42 47 52
43 48 51
44 49 51
45 27 49
46 29 47
47 27 44
48 41 42
49 23 42
50 34 39
51 31 36
52 32 38
53 24 38
54 35 39
55 35 37
56 29 34
57 28 33
58 30 32
59 29 29
60 24 30
61 24 30
62 22 29
63 22 27
64 14 23
65 21 21
66 15 20
67 18 18
68 12 16
69 14 16
70 15 14
71 8 9
72 3 12
73 6 10
74 8 9
75 8 9
76 6 9
77 8 7
78 7 6
79 6 8
80 2 7
81 6 7
82 6 6
83 3 4
84 3 3
85 2 2
86 1 2
87 1 1

